33D32945 STP File, STP Format Version 1.0

SECTION Comment
Name    "i080-141"
Creator "Cees Duin"
Remark  "Incidence graph"
END

SECTION Graph
Nodes 80
Edges 632
E 1 3 297
E 1 11 198
E 1 14 196
E 1 17 200
E 1 21 195
E 1 22 192
E 1 23 202
E 1 31 205
E 1 39 205
E 1 42 206
E 1 44 194
E 1 47 200
E 1 48 193
E 1 55 198
E 1 56 206
E 1 63 195
E 1 69 206
E 1 70 195
E 1 76 200
E 1 78 202
E 2 7 303
E 2 23 199
E 2 25 200
E 2 29 194
E 2 31 204
E 2 33 206
E 2 46 198
E 2 48 197
E 2 52 200
E 2 60 197
E 2 70 204
E 2 80 211
E 3 8 303
E 3 11 198
E 3 14 201
E 3 15 200
E 3 19 194
E 3 21 193
E 3 22 201
E 3 25 199
E 3 26 201
E 3 27 210
E 3 31 197
E 3 36 204
E 3 46 190
E 3 64 196
E 3 67 203
E 3 68 202
E 3 70 201
E 3 73 203
E 3 74 202
E 3 76 198
E 4 20 200
E 4 33 204
E 4 58 193
E 4 60 201
E 4 63 196
E 4 65 195
E 4 66 205
E 4 74 207
E 4 76 203
E 4 78 200
E 5 6 298
E 5 10 195
E 5 11 207
E 5 12 202
E 5 18 207
E 5 28 212
E 5 33 206
E 5 34 204
E 5 37 203
E 5 41 197
E 5 49 198
E 5 52 204
E 5 59 202
E 5 64 204
E 5 77 193
E 6 18 197
E 6 19 204
E 6 21 198
E 6 31 197
E 6 34 204
E 6 38 203
E 6 46 191
E 6 49 198
E 6 50 197
E 6 51 213
E 6 55 202
E 6 66 198
E 6 67 202
E 6 68 206
E 6 69 198
E 6 72 201
E 7 18 200
E 7 19 208
E 7 26 197
E 7 37 198
E 7 50 198
E 7 51 196
E 7 57 195
E 7 63 198
E 7 65 191
E 7 68 204
E 7 72 195
E 7 73 197
E 7 77 201
E 8 13 197
E 8 27 198
E 8 28 192
E 8 32 207
E 8 35 196
E 8 42 192
E 8 57 205
E 8 61 202
E 8 62 206
E 8 65 195
E 8 68 202
E 8 74 191
E 8 80 196
E 9 13 105
E 9 16 94
E 9 24 98
E 9 25 101
E 9 32 107
E 9 41 108
E 9 50 99
E 9 62 95
E 9 67 97
E 9 69 95
E 9 70 96
E 9 80 95
E 10 34 96
E 10 43 99
E 10 51 106
E 10 57 98
E 10 68 94
E 10 69 103
E 10 71 100
E 10 74 92
E 10 78 104
E 11 12 95
E 11 17 91
E 11 19 96
E 11 28 106
E 11 37 106
E 11 46 107
E 11 48 93
E 11 57 95
E 11 71 98
E 11 75 99
E 11 77 105
E 12 30 95
E 12 31 96
E 12 33 101
E 12 36 106
E 12 39 105
E 12 45 101
E 12 51 99
E 12 53 92
E 12 57 99
E 12 74 98
E 12 78 88
E 13 25 108
E 13 26 96
E 13 37 98
E 13 58 90
E 13 60 100
E 13 62 96
E 14 22 104
E 14 24 98
E 14 37 96
E 14 47 97
E 14 48 92
E 14 56 105
E 14 70 100
E 14 74 97
E 15 17 97
E 15 21 96
E 15 22 103
E 15 33 101
E 15 38 93
E 15 45 97
E 15 51 102
E 15 53 95
E 15 62 101
E 15 64 96
E 15 66 90
E 15 70 99
E 15 72 102
E 15 74 102
E 15 78 103
E 16 18 96
E 16 24 93
E 16 31 107
E 16 34 84
E 16 38 101
E 16 39 96
E 16 41 83
E 16 48 96
E 16 58 91
E 16 63 101
E 16 65 98
E 16 70 104
E 16 72 103
E 16 73 96
E 16 74 105
E 17 18 103
E 17 19 103
E 17 21 97
E 17 24 98
E 17 27 99
E 17 33 102
E 17 40 96
E 17 44 97
E 17 52 106
E 17 57 96
E 17 68 91
E 17 72 101
E 17 78 97
E 18 21 96
E 18 23 101
E 18 25 113
E 18 29 99
E 18 37 104
E 18 43 103
E 18 49 92
E 18 52 106
E 18 53 96
E 18 55 103
E 18 57 103
E 18 64 97
E 18 67 95
E 18 77 94
E 19 23 94
E 19 26 100
E 19 36 100
E 19 39 91
E 19 40 91
E 19 42 100
E 19 43 104
E 19 47 98
E 19 48 102
E 19 50 102
E 19 51 107
E 19 53 100
E 19 54 104
E 19 59 100
E 19 67 100
E 19 80 103
E 20 22 90
E 20 23 99
E 20 25 98
E 20 27 98
E 20 32 94
E 20 37 93
E 20 38 94
E 20 41 95
E 20 46 101
E 20 48 97
E 20 49 97
E 20 54 106
E 20 60 89
E 20 64 109
E 20 68 101
E 20 69 100
E 20 80 105
E 21 28 99
E 21 30 100
E 21 37 107
E 21 38 97
E 21 39 92
E 21 41 99
E 21 42 101
E 21 43 95
E 21 47 95
E 21 48 102
E 21 50 94
E 21 52 96
E 21 57 100
E 21 59 110
E 21 78 102
E 22 26 100
E 22 33 104
E 22 41 107
E 22 44 105
E 22 45 100
E 22 63 103
E 22 69 97
E 22 79 96
E 23 30 109
E 23 31 98
E 23 43 93
E 23 52 92
E 23 55 110
E 23 56 104
E 23 63 99
E 23 66 98
E 23 70 107
E 23 71 95
E 23 73 105
E 23 75 110
E 24 25 98
E 24 40 100
E 24 41 107
E 24 42 111
E 24 53 105
E 24 54 98
E 24 56 93
E 24 63 93
E 24 64 103
E 24 67 107
E 24 69 95
E 24 71 107
E 24 72 89
E 24 74 106
E 25 30 96
E 25 32 105
E 25 35 102
E 25 38 105
E 25 44 96
E 25 45 104
E 25 47 106
E 25 56 98
E 25 58 93
E 25 65 95
E 25 71 100
E 26 31 97
E 26 39 97
E 26 40 100
E 26 41 110
E 26 42 103
E 26 49 97
E 26 55 101
E 26 56 97
E 26 58 108
E 26 63 99
E 26 67 103
E 26 70 100
E 27 30 91
E 27 37 107
E 27 42 90
E 27 45 92
E 27 48 111
E 27 54 96
E 27 55 89
E 27 60 106
E 27 61 99
E 27 66 89
E 27 70 101
E 27 72 92
E 27 79 98
E 28 35 102
E 28 40 102
E 28 49 104
E 28 53 101
E 28 58 105
E 28 60 95
E 28 62 99
E 28 68 105
E 28 70 106
E 28 71 103
E 28 72 98
E 29 30 106
E 29 38 92
E 29 41 91
E 29 51 98
E 29 58 112
E 29 65 99
E 29 67 107
E 29 68 101
E 29 71 103
E 30 33 94
E 30 44 104
E 30 45 111
E 30 48 100
E 30 53 95
E 30 54 99
E 30 60 104
E 30 68 102
E 30 76 102
E 30 78 95
E 31 32 101
E 31 33 93
E 31 44 89
E 31 47 98
E 31 51 101
E 31 52 98
E 31 53 91
E 31 54 92
E 31 55 99
E 31 59 102
E 31 63 100
E 31 67 95
E 31 68 102
E 31 70 105
E 31 74 93
E 31 77 100
E 31 78 105
E 31 80 93
E 32 44 95
E 32 48 99
E 32 50 101
E 32 52 102
E 32 59 104
E 32 61 87
E 32 66 91
E 32 71 94
E 32 77 94
E 32 80 95
E 33 42 103
E 33 44 102
E 33 47 99
E 33 55 107
E 33 62 90
E 33 68 92
E 33 76 91
E 33 79 93
E 33 80 111
E 34 41 101
E 34 44 103
E 34 46 102
E 34 51 101
E 34 53 94
E 34 55 97
E 34 76 103
E 34 79 103
E 35 37 100
E 35 48 100
E 35 53 92
E 35 55 108
E 35 56 103
E 35 62 98
E 35 71 99
E 36 38 82
E 36 43 104
E 36 46 100
E 36 49 101
E 36 50 105
E 36 51 110
E 36 53 109
E 36 56 107
E 36 70 99
E 36 74 98
E 37 40 97
E 37 41 98
E 37 42 94
E 37 65 105
E 38 46 99
E 38 51 98
E 38 58 100
E 38 59 104
E 38 67 98
E 39 42 111
E 39 43 103
E 39 51 96
E 39 55 99
E 39 66 98
E 39 69 103
E 39 73 99
E 40 45 97
E 40 47 93
E 40 60 89
E 40 64 104
E 40 74 101
E 40 75 97
E 40 76 96
E 40 79 97
E 41 44 102
E 41 49 104
E 41 51 98
E 41 56 105
E 41 63 100
E 41 73 99
E 41 75 95
E 41 76 105
E 41 80 87
E 42 51 107
E 42 55 103
E 42 57 102
E 42 75 102
E 42 80 101
E 43 46 110
E 43 47 106
E 43 53 88
E 43 56 97
E 43 60 103
E 43 73 106
E 43 74 99
E 43 75 108
E 43 77 101
E 44 51 107
E 44 53 100
E 44 54 104
E 44 70 97
E 44 72 102
E 45 46 88
E 45 47 112
E 45 59 106
E 45 62 98
E 45 63 99
E 45 67 99
E 45 68 94
E 45 69 103
E 45 76 96
E 45 77 92
E 45 80 100
E 46 50 93
E 46 66 97
E 46 69 108
E 46 71 101
E 46 72 97
E 46 75 97
E 47 48 101
E 47 49 101
E 47 51 92
E 47 52 107
E 47 54 107
E 47 56 94
E 47 60 95
E 47 63 94
E 47 64 102
E 47 65 94
E 47 76 91
E 47 80 102
E 48 53 99
E 48 59 95
E 48 61 102
E 48 63 101
E 48 79 99
E 49 50 93
E 49 73 101
E 49 79 103
E 50 53 97
E 50 54 95
E 50 56 103
E 50 67 101
E 50 70 104
E 51 52 93
E 51 56 96
E 51 62 93
E 51 69 106
E 51 72 99
E 51 75 106
E 52 57 100
E 52 58 108
E 52 67 98
E 52 73 93
E 52 78 100
E 53 57 102
E 53 67 105
E 53 68 108
E 54 58 99
E 54 65 104
E 54 75 96
E 55 63 105
E 55 70 108
E 55 77 97
E 55 80 105
E 56 58 106
E 56 70 101
E 56 73 101
E 57 63 96
E 57 69 101
E 57 73 105
E 57 74 92
E 57 78 96
E 58 63 98
E 58 64 94
E 58 66 101
E 58 72 95
E 58 74 101
E 58 75 97
E 58 78 96
E 58 79 99
E 58 80 102
E 59 60 99
E 59 63 101
E 59 69 105
E 59 72 102
E 59 73 99
E 59 74 98
E 59 75 98
E 59 77 94
E 59 79 103
E 60 76 100
E 60 79 104
E 61 70 106
E 61 73 95
E 61 74 100
E 61 75 100
E 62 65 94
E 62 72 98
E 62 78 102
E 62 79 100
E 63 67 94
E 63 77 97
E 64 65 97
E 64 68 95
E 64 69 100
E 64 72 96
E 64 73 110
E 64 76 100
E 65 66 95
E 65 68 106
E 65 71 96
E 65 73 100
E 65 78 100
E 65 80 99
E 66 71 100
E 66 73 95
E 67 73 103
E 68 71 102
E 68 75 99
E 68 77 102
E 69 73 98
E 69 75 99
E 70 73 100
E 70 77 100
E 70 78 99
E 71 72 102
E 71 73 100
E 71 74 102
E 71 76 99
E 71 77 98
E 72 74 95
E 72 79 113
E 73 76 88
E 73 80 102
E 75 79 97
E 76 78 97
E 78 80 103
E 79 80 107
END

SECTION Terminals
Terminals 8
T 1
T 2
T 3
T 4
T 5
T 6
T 7
T 8
END

EOF
